Version identifier: 22.1.0.0 | 2022-03-09 | 1a383f8ce
CPXPARAM_Threads                                 1
CPXPARAM_MIP_Strategy_VariableSelect             3
CPXPARAM_TimeLimit                               599.99997344799999
1 of 1 MIP starts provided solutions.
MIP start 'm1' defined initial solution with objective 1.0000.
Tried aggregator 2 times.
MIP Presolve eliminated 37 rows and 1 columns.
MIP Presolve added 32 rows and 8 columns.
MIP Presolve modified 73 coefficients.
Aggregator did 8 substitutions.
Reduced MIP has 1212 rows, 5000 columns, and 72772 nonzeros.
Reduced MIP has 5000 binaries, 0 generals, 0 SOSs, and 0 indicators.
Presolve time = 0.12 sec. (128.27 ticks)
Probing time = 0.02 sec. (15.05 ticks)
Tried aggregator 1 time.
Detecting symmetries...
MIP Presolve modified 14 coefficients.
Reduced MIP has 1212 rows, 5000 columns, and 73148 nonzeros.
Reduced MIP has 5000 binaries, 0 generals, 0 SOSs, and 0 indicators.
Presolve time = 0.08 sec. (84.04 ticks)
Probing time = 0.02 sec. (15.09 ticks)
Clique table members: 796.
MIP emphasis: balance optimality and feasibility.
MIP search method: dynamic search.
Parallel mode: none, using 1 thread.
Root relaxation solution time = 1.01 sec. (1142.80 ticks)

        Nodes                                         Cuts/
   Node  Left     Objective  IInf  Best Integer    Best Bound    ItCnt     Gap

*     0+    0                            1.0000    20100.0000              --- 
      0     0      200.0000   861        1.0000      200.0000     4246     --- 
*     0+    0                           17.0000      200.0000              --- 
      0     0      200.0000   405       17.0000       Cuts: 4     7492     --- 
      0     0      200.0000   300       17.0000    Cliques: 6     8219     --- 
      0     0      200.0000   448       17.0000      Cuts: 42    11273     --- 
*     0+    0                           87.0000      200.0000           129.89%
*     0+    0                          174.0000      200.0000            14.94%
*     0+    0                          183.0000      200.0000             9.29%
      0     0        cutoff            183.0000      200.0000    11273    9.29%
      0     0      200.0000   278      183.0000       Cuts: 3    11594    9.29%
      0     0      200.0000   478      183.0000      Cuts: 69    15399    9.29%
Detecting symmetries...
Detecting symmetries...
      0     2      200.0000   304      183.0000      200.0000    15399    9.29%
Elapsed time = 41.70 sec. (47295.06 ticks, tree = 0.01 MB, solutions = 5)
      1     3      200.0000   307      183.0000      200.0000    16283    9.29%
      2     4      200.0000   405      183.0000      200.0000    19598    9.29%
      3     5      200.0000   418      183.0000      200.0000    21670    9.29%
      4     6      200.0000   432      183.0000      200.0000    25210    9.29%
      5     7      200.0000   341      183.0000      200.0000    25482    9.29%
      6     8      200.0000   466      183.0000      200.0000    34349    9.29%
      7     9      200.0000   654      183.0000      200.0000    35226    9.29%
      8    10      200.0000   516      183.0000      200.0000    35571    9.29%
      9    11      200.0000   488      183.0000      200.0000    39756    9.29%
     10    12      200.0000   508      183.0000      200.0000    39938    9.29%
Elapsed time = 50.64 sec. (56763.22 ticks, tree = 0.04 MB, solutions = 5)
     11    13      200.0000   456      183.0000      200.0000    45913    9.29%
     13    14      199.6333   362      183.0000      200.0000    52912    9.29%
     14    15      200.0000   325      183.0000      200.0000    59342    9.29%
     15    16      200.0000   302      183.0000      200.0000    64149    9.29%
     18    18      199.0000   413      183.0000      200.0000    69080    9.29%
     20    20      200.0000   292      183.0000      200.0000    72062    9.29%
     24    21      200.0000   312      183.0000      200.0000    74073    9.29%
     26    23      200.0000   305      183.0000      200.0000    80811    9.29%
     29    26      200.0000   273      183.0000      200.0000    87391    9.29%
     30    26      198.9290   369      183.0000      200.0000    90765    9.29%
Elapsed time = 64.88 sec. (71312.55 ticks, tree = 0.11 MB, solutions = 5)
     33    28      200.0000   261      183.0000      200.0000    94846    9.29%
     35    30      200.0000   295      183.0000      200.0000   101612    9.29%
     38    31      199.0361   487      183.0000      200.0000   112974    9.29%
     40    33      200.0000   376      183.0000      200.0000   114134    9.29%
     41    33      199.0501   487      183.0000      200.0000   120931    9.29%
     46    36      200.0000   264      183.0000      200.0000   121438    9.29%
     49    38      200.0000   184      183.0000      200.0000   125772    9.29%
     50    38      199.0000   338      183.0000      200.0000   130069    9.29%
     52    39      199.0338   376      183.0000      200.0000   136824    9.29%
     55    41      200.0000   209      183.0000      200.0000   139371    9.29%
Elapsed time = 77.52 sec. (83797.80 ticks, tree = 0.25 MB, solutions = 5)
     57    43      200.0000   259      183.0000      200.0000   142918    9.29%
     59    44      198.9048   365      183.0000      200.0000   153668    9.29%
     63    47      200.0000   268      183.0000      200.0000   157300    9.29%
     65    48      200.0000   280      183.0000      200.0000   162511    9.29%
     68    50      200.0000   233      183.0000      200.0000   167704    9.29%
     70    50      199.0000   248      183.0000      200.0000   176671    9.29%
     73    53      199.0000   213      183.0000      200.0000   181909    9.29%
     75    54      199.0000   245      183.0000      200.0000   187994    9.29%
     77    55      199.0000   252      183.0000      200.0000   195242    9.29%
     80    57      198.0000   310      183.0000      200.0000   200959    9.29%
Elapsed time = 91.01 sec. (96972.59 ticks, tree = 0.36 MB, solutions = 5)
     82    59      199.0000   252      183.0000      200.0000   204266    9.29%
     83    59      198.9004   356      183.0000      200.0000   211380    9.29%
     85    61      199.0000   182      183.0000      200.0000   215298    9.29%
     87    62      199.0000   218      183.0000      200.0000   223837    9.29%
     89    64      199.0000   152      183.0000      200.0000   229058    9.29%
     90    65      199.0000   199      183.0000      200.0000   231512    9.29%
     92    66      199.0000   225      183.0000      200.0000   236778    9.29%
     94    67      199.0000   184      183.0000      200.0000   244191    9.29%
     97    67      198.9617   415      183.0000      200.0000   253972    9.29%
     99    69      198.0000   286      183.0000      200.0000   261503    9.29%
Elapsed time = 103.91 sec. (109534.63 ticks, tree = 0.43 MB, solutions = 5)
    100    70      198.0000   253      183.0000      200.0000   265680    9.29%
    102    71      196.8769   286      183.0000      200.0000   271213    9.29%
    104    73      198.0000   179      183.0000      200.0000   276126    9.29%
    107    73      198.0000   137      183.0000      200.0000   281399    9.29%
    110    75      198.0000   137      183.0000      200.0000   289375    9.29%
    112    77      198.0000   164      183.0000      200.0000   293920    9.29%
    114    78      198.0000   165      183.0000      200.0000   301182    9.29%
    117    80      198.0000   134      183.0000      200.0000   309305    9.29%
    119    81      198.0000   201      183.0000      200.0000   315074    9.29%
    120    81      197.0000   375      183.0000      200.0000   320562    9.29%
Elapsed time = 116.16 sec. (121317.96 ticks, tree = 0.54 MB, solutions = 5)
    123    82      196.0000   401      183.0000      200.0000   327304    9.29%
    125    83      195.0000   217      183.0000      200.0000   332595    9.29%
    130    86      195.0000   178      183.0000      200.0000   334196    9.29%
    136    91      195.0000   206      183.0000      200.0000   337868    9.29%
    141    96      195.0000   164      183.0000      200.0000   339980    9.29%
    145   100      195.0000   179      183.0000      200.0000   342727    9.29%
    148   102      195.0000   179      183.0000      200.0000   348116    9.29%
    151   104      195.0000   181      183.0000      200.0000   351910    9.29%
    156   107      195.0000   192      183.0000      200.0000   355400    9.29%
    162   111      188.0000   139      183.0000      200.0000   357993    9.29%
Elapsed time = 127.44 sec. (131893.29 ticks, tree = 0.61 MB, solutions = 5)
    171   120      188.0000    84      183.0000      200.0000   359998    9.29%
    181   128      188.0000   101      183.0000      200.0000   362861    9.29%
    191   138      188.0000   120      183.0000      200.0000   365538    9.29%
*   197    90      integral     0      188.0000      200.0000   366783    6.38%
    198    89      199.0526   370      188.0000      200.0000   370287    6.38%
    200    90      199.0000   260      188.0000      200.0000   374477    6.38%
    202    91      199.0000   216      188.0000      200.0000   382204    6.38%
    204    93      199.0000   220      188.0000      200.0000   386873    6.38%
    206    93      199.0000   273      188.0000      200.0000   394113    6.38%
    209    96      199.0000   226      188.0000      200.0000   398374    6.38%
    211    97      199.0000   250      188.0000      200.0000   403241    6.38%
Elapsed time = 142.18 sec. (145586.76 ticks, tree = 0.57 MB, solutions = 6)
    215    99      199.0000   280      188.0000      200.0000   409753    6.38%
    217   100      198.0000   337      188.0000      200.0000   414768    6.38%
    220   102      199.0000   261      188.0000      200.0000   419766    6.38%
    223   105      199.0000   233      188.0000      200.0000   426749    6.38%
    226   104    infeasible            188.0000      200.0000   435769    6.38%
    228   106      199.0000   221      188.0000      200.0000   439325    6.38%
    231   107      199.0000   272      188.0000      200.0000   446343    6.38%
    233   109      199.0000   240      188.0000      200.0000   450717    6.38%
    235   108    infeasible            188.0000      200.0000   459467    6.38%
    237   110      199.0000   270      188.0000      200.0000   465706    6.38%
Elapsed time = 157.42 sec. (160039.78 ticks, tree = 0.60 MB, solutions = 6)
    238   110      198.0000   309      188.0000      200.0000   472691    6.38%
    240   111      199.0000   178      188.0000      200.0000   478059    6.38%
    243   112    infeasible            188.0000      200.0000   484997    6.38%
    244   112      198.0000   228      188.0000      200.0000   495024    6.38%
    246   113      198.0000   333      188.0000      200.0000   500005    6.38%
    248   113      198.0000   338      188.0000      200.0000   505515    6.38%
    251   116      198.0000   342      188.0000      200.0000   510001    6.38%
    254   118      198.0000   306      188.0000      200.0000   513339    6.38%
    257   121      198.0000   333      188.0000      200.0000   519381    6.38%
    265   124      198.0000   321      188.0000      200.0000   536392    6.38%
Elapsed time = 173.19 sec. (175058.88 ticks, tree = 0.72 MB, solutions = 6)
    275   127    infeasible            188.0000      200.0000   554585    6.38%
    285   126    infeasible            188.0000      200.0000   575867    6.38%
    294   126    infeasible            188.0000      200.0000   597371    6.38%
    305   126    infeasible            188.0000      200.0000   620160    6.38%
    315   126    infeasible            188.0000      200.0000   645089    6.38%
    322   127      198.0000   315      188.0000      200.0000   662441    6.38%
    332   127    infeasible            188.0000      200.0000   685577    6.38%
    340   127      198.0000   409      188.0000      200.0000   709773    6.38%
    351   134      196.0000   195      188.0000      200.0000   726060    6.38%
    367   145      194.0000    78      188.0000      200.0000   743228    6.38%
Elapsed time = 216.50 sec. (214949.77 ticks, tree = 0.75 MB, solutions = 6)
    404   168      199.0000   213      188.0000      200.0000   758460    6.38%
    412   171      196.0000   291      188.0000      200.0000   774853    6.38%
    428   177      199.0000   390      188.0000      200.0000   795467    6.38%
    437   182      198.0000   271      188.0000      200.0000   812442    6.38%
    450   190      198.0000   241      188.0000      200.0000   820816    6.38%
    464   197      198.0000   227      188.0000      200.0000   840897    6.38%
    479   204      197.5561   336      188.0000      200.0000   856924    6.38%
    493   211      196.7500   298      188.0000      200.0000   876363    6.38%
    508   219      196.2059   234      188.0000      200.0000   898745    6.38%
    523   228      197.0000   265      188.0000      200.0000   921696    6.38%
Elapsed time = 259.81 sec. (254732.17 ticks, tree = 1.72 MB, solutions = 6)
    546   236      197.0000   186      188.0000      200.0000   939729    6.38%
    569   248      196.0000   181      188.0000      200.0000   952788    6.38%
    593   260      195.5747   242      188.0000      200.0000   978009    6.38%
    625   272      195.0000   199      188.0000      200.0000   993556    6.38%
    669   299      191.0000    86      188.0000      200.0000  1005181    6.38%
    685   303      197.0000   233      188.0000      200.0000  1022164    6.38%
    707   310      194.9325   316      188.0000      200.0000  1035434    6.38%
    746   329      191.0000   101      188.0000      200.0000  1045524    6.38%
*   751   321      integral     0      189.0000      200.0000  1046903    5.82%
    760   322      197.0000   344      189.0000      200.0000  1061156    5.82%
    771   327    infeasible            189.0000      200.0000  1078192    5.82%
Elapsed time = 303.76 sec. (294377.44 ticks, tree = 2.94 MB, solutions = 7)
    785   333      196.0000   182      189.0000      200.0000  1099309    5.82%
    794   332      197.0000   370      189.0000      200.0000  1117820    5.82%
    812   337      197.0000   230      189.0000      200.0000  1124184    5.82%
    830   342      197.0000   203      189.0000      200.0000  1131641    5.82%
    846   348      195.4238   305      189.0000      200.0000  1146409    5.82%
    870   361      192.0000   158      189.0000      200.0000  1160590    5.82%
    892   372      198.0000   414      189.0000      200.0000  1176529    5.82%
    899   375      198.0000   262      189.0000      200.0000  1190124    5.82%
    912   381      197.0000   220      189.0000      200.0000  1203753    5.82%
    924   387      195.0000   185      189.0000      200.0000  1221950    5.82%
Elapsed time = 346.45 sec. (334145.07 ticks, tree = 3.67 MB, solutions = 7)
    949   388      195.0000   210      189.0000      200.0000  1230576    5.82%
    973   397      194.0000   215      189.0000      200.0000  1241375    5.82%
   1006   411      198.0000   352      189.0000      200.0000  1258382    5.82%
   1021   420      198.0000   271      189.0000      200.0000  1269406    5.82%
   1039   434      198.0000   189      189.0000      200.0000  1281130    5.82%
   1056   437      196.9940   335      189.0000      200.0000  1296926    5.82%
   1073   448      196.0000   229      189.0000      200.0000  1310091    5.82%
   1096   462      196.0000   182      189.0000      200.0000  1328212    5.82%
   1118   466      200.0000   349      189.0000      200.0000  1346185    5.82%
   1124   470      200.0000   317      189.0000      200.0000  1348222    5.82%
Elapsed time = 388.98 sec. (373667.33 ticks, tree = 4.66 MB, solutions = 7)
   1130   474      198.0000   363      189.0000      200.0000  1365087    5.82%
   1138   479      197.0000   288      189.0000      200.0000  1382060    5.82%
   1156   485      197.0000   146      189.0000      200.0000  1392987    5.82%
   1173   490      195.0000   150      189.0000      200.0000  1406822    5.82%
   1200   493      195.0000   215      189.0000      200.0000  1413350    5.82%
   1225   503      194.0000   182      189.0000      200.0000  1424172    5.82%
   1253   516      190.0000   134      189.0000      200.0000  1444259    5.82%
   1266   519      198.0000   415      189.0000      200.0000  1463174    5.82%
   1276   524      196.0000   233      189.0000      200.0000  1477616    5.82%
   1296   533      196.0000   257      189.0000      200.0000  1486048    5.82%
Elapsed time = 432.46 sec. (414400.65 ticks, tree = 5.43 MB, solutions = 7)
   1326   547      190.0000    80      189.0000      200.0000  1502143    5.82%
   1334   550      199.0000   299      189.0000      200.0000  1519197    5.82%
   1340   554      198.0000   329      189.0000      200.0000  1535047    5.82%
   1353   559      196.0000   229      189.0000      200.0000  1548492    5.82%
   1372   569      193.2338   209      189.0000      200.0000  1564961    5.82%
   1415   584      190.0000   108      189.0000      200.0000  1578960    5.82%
   1440   590      198.0000   308      189.0000      200.0000  1592270    5.82%
   1456   597      195.0000   179      189.0000      200.0000  1605538    5.82%
   1483   604      194.0000   198      189.0000      200.0000  1613523    5.82%
   1517   626      190.0000   111      189.0000      200.0000  1624119    5.82%
Elapsed time = 474.55 sec. (453490.86 ticks, tree = 6.55 MB, solutions = 7)
   1535   634      198.8333   349      189.0000      200.0000  1632478    5.82%
   1537   635      200.0000   314      189.0000      200.0000  1633593    5.82%

Performing restart 1

Repeating presolve.
Tried aggregator 1 time.
MIP Presolve eliminated 0 rows and 191 columns.
MIP Presolve modified 14046 coefficients.
Reduced MIP has 1212 rows, 4809 columns, and 48440 nonzeros.
Reduced MIP has 4809 binaries, 0 generals, 0 SOSs, and 0 indicators.
Presolve time = 0.04 sec. (38.39 ticks)
Tried aggregator 1 time.
MIP Presolve eliminated 0 rows and 374 columns.
Reduced MIP has 1212 rows, 4435 columns, and 43037 nonzeros.
Reduced MIP has 4435 binaries, 0 generals, 0 SOSs, and 0 indicators.
Presolve time = 0.03 sec. (21.25 ticks)
Tried aggregator 1 time.
Reduced MIP has 1212 rows, 4435 columns, and 43037 nonzeros.
Reduced MIP has 4435 binaries, 0 generals, 0 SOSs, and 0 indicators.
Presolve time = 0.03 sec. (25.11 ticks)
Represolve time = 0.45 sec. (269.59 ticks)
   1538     0      199.0000   873      189.0000     Cuts: 313  1642270    5.29%
   1538     0      199.0000   845      189.0000     Cuts: 328  1647550    5.29%
   1538     0      199.0000   887      189.0000     Cuts: 204  1652093    5.29%
   1538     0      199.0000   494      189.0000      Cuts: 10  1654697    5.29%
   1538     0      199.0000   591      189.0000     Cuts: 131  1657320    5.29%
   1538     0      199.0000   552      189.0000      Cuts: 21  1659790    5.29%
   1538     0      199.0000   594      189.0000     Cuts: 172  1662859    5.29%
   1538     0      199.0000   331      189.0000   ZeroHalf: 1  1663264    5.29%
   1538     0      199.0000   586      189.0000     Cuts: 280  1666893    5.29%
   1538     2      199.0000   318      189.0000      199.0000  1666893    5.29%
   1541     5      199.0000   676      189.0000      199.0000  1682395    5.29%
   1547    11      199.0000   809      189.0000      199.0000  1697190    5.29%
   1553    17      199.0000   450      189.0000      199.0000  1709795    5.29%
   1559    23      199.0000   796      189.0000      199.0000  1726040    5.29%
   1567    31      199.0000   620      189.0000      199.0000  1740004    5.29%
   1574    38      199.0000   859      189.0000      199.0000  1748310    5.29%
   1582    46      199.0000   365      189.0000      199.0000  1762946    5.29%
Elapsed time = 569.46 sec. (545435.45 ticks, tree = 0.46 MB, solutions = 7)
   1587    50      199.0000   358      189.0000      199.0000  1777235    5.29%
   1594    57      199.0000   335      189.0000      199.0000  1790773    5.29%
   1599    60      199.0000   314      189.0000      199.0000  1805140    5.29%
   1608    66      199.0000   402      189.0000      199.0000  1816811    5.29%
   1617    68        cutoff            189.0000      199.0000  1834569    5.29%
   1626    74      199.0000   361      189.0000      199.0000  1845671    5.29%

Clique cuts applied:  70
Mixed integer rounding cuts applied:  3
Zero-half cuts applied:  71
Gomory fractional cuts applied:  3

Root node processing (before b&c):
  Real time             =   41.62 sec. (47234.76 ticks)
Sequential b&c:
  Real time             =  558.38 sec. (527917.58 ticks)
                          ------------
Total (root+branch&cut) =  600.00 sec. (575152.34 ticks)
Primal:	189
Dual:	199
Status:	Feasible
Time:	600.01
Sequence:
	22
	7
	14
	10
	15
	8
	14
	7
	17
	4
	17
	6
	15
	11
	15
	6
	17
	2
	19
	9
	16
	6
	17
	4
	18
	8
	14
	10
	15
	6
	17
	5
	17
	8
	16
	6
	18
	4
	14
	6
	20
	1
	19
	6
	14
	6
	15
	6
	16
	9
	17
	4
	17
	6
	16
	7
	14
	12
	14
	8
	20
	0
	17
	10
	14
	8
	16
	8
	14
	10
	19
	0
	22
	6
	14
	10
	15
	9
	17
	2
	17
	8
	16
	6
	18
	2
	19
	6
	16
	7
	14
	12
	15
	6
	18
	2
	17
	8
	16
	8
	14
	10
	17
	1
	22
	6
	14
	6
	17
	3
	19
	6
	16
	8
	17
	5
	17
	6
	16
	8
	17
	3
	17
	8
	16
	6
	19
	3
	8
	14
	10
	15
	6
	18
	4
	17
	8
	14
	6
	13
	14
	8
	10
	14
	6
	16
	6
	19
	5
	17
	6
	14
	10
	8
	14
	11
	8
	14
	12
	6
	14
	9
	6
	14
	8
	17
	5
	14
	6
	4
	17
	9
	14
	6
	12
	14
	8
	7
	14
	8
	10
	14
	7
	14
	10
	15
	6
	22
	0
